\Problem name: 

Minimize
OBJROW: - var(0) - var(1) - var(2) - var(3) - var(4)
Subject To
constr(0):  var(2) <= 218.94597
constr(1):  var(3) <= 457.28098
constr(2):  var(2) + var(3) <= 481.37036
constr(3):  var(0) <= 282.84271
constr(4):  var(1) <= 282.84271
constr(5):  var(2) <= 283.21130
constr(6):  var(3) <= 391.93787
constr(7):  var(4) <= 368.45532
constr(8):  var(0) + var(1) <= 282.84271
constr(9):  var(0) + var(2) <= 283.21130
constr(10):  var(0) + var(3) <= 391.93787
constr(11):  var(0) + var(4) <= 368.45532
constr(12):  var(1) + var(2) <= 283.21130
constr(13):  var(1) + var(3) <= 391.93787
constr(14):  var(1) + var(4) <= 368.45532
constr(15):  var(2) + var(3) <= 391.93787
constr(16):  var(2) + var(4) <= 368.45532
constr(17):  var(3) + var(4) <= 441.80591
constr(18):  var(0) + var(1) + var(2) <= 283.21130
constr(19):  var(0) + var(1) + var(3) <= 391.93787
constr(20):  var(0) + var(1) + var(4) <= 368.45532
constr(21):  var(0) + var(2) + var(3) <= 391.93787
constr(22):  var(0) + var(2) + var(4) <= 368.45532
constr(23):  var(0) + var(3) + var(4) <= 441.80591
constr(24):  var(1) + var(2) + var(3) <= 391.93787
constr(25):  var(1) + var(2) + var(4) <= 368.45532
constr(26):  var(1) + var(3) + var(4) <= 441.80591
constr(27):  var(2) + var(3) + var(4) <= 441.80591
constr(28):  var(0) + var(1) + var(2) + var(3) <= 391.93787
constr(29):  var(0) + var(1) + var(2) + var(4) <= 368.45532
constr(30):  var(0) + var(1) + var(3) + var(4) <= 441.80591
constr(31):  var(0) + var(2) + var(3) + var(4) <= 441.80591
constr(32):  var(1) + var(2) + var(3) + var(4) <= 441.80591
constr(33):  var(0) + var(1) + var(2) + var(3) + var(4) <= 441.80591
constr(34):  var(2) <= 207.62738
constr(35):  var(4) <= 420.35071
constr(36):  var(2) + var(4) <= 479.28815
Bounds
End
